1179.0 13187.0 3053.0 
1226.0 13307.0 2935.0 
1207.0 13453.0 2958.0 
1151.0 13390.0 3274.0 
1190.0 13168.0 3153.0 
1243.0 13240.0 2887.0 
1202.0 13272.0 2961.0 
1222.0 13442.0 2922.0 
1249.0 13216.0 2965.0 
1151.0 13390.0 3274.0 
1234.0 13380.0 2860.0 
1234.0 13380.0 2860.0 
1142.0 13484.0 3254.0 
1184.0 13169.0 2974.0 
1222.0 13329.0 2942.0 
1138.0 13789.0 3515.0 
1171.0 13374.0 3165.0 
1154.0 13270.0 3167.0 
1219.0 13364.0 2960.0 
1184.0 13169.0 2974.0 
1229.0 13254.0 2877.0 
1199.0 13470.0 2946.0 
1163.0 13431.0 3114.0 
1131.0 13931.0 3783.0 
1135.0 13820.0 3611.0 
1171.0 13374.0 3165.0 
1192.0 13163.0 3148.0 
1140.0 13584.0 3270.0 
1184.0 13169.0 2974.0 
